11
0 1 33
0 2 10
0 3 8
0 4 9
0 5 35
0 6 59
0 7 30
0 8 72
0 9 78
0 10 24
1 0 65
1 2 64
1 3 85
1 4 59
1 5 18
1 6 82
1 7 53
1 8 23
1 9 89
1 10 42
2 0 33
2 1 50
2 3 92
2 4 22
2 5 4
2 6 88
2 7 72
2 8 67
2 9 23
2 10 52
3 0 83
3 1 65
3 2 21
3 4 8
3 5 70
3 6 89
3 7 14
3 8 56
3 9 78
3 10 47
4 0 99
4 1 89
4 2 78
4 3 4
4 5 19
4 6 37
4 7 5
4 8 31
4 9 45
4 10 57
5 0 13
5 1 58
5 2 73
5 3 53
5 4 37
5 6 58
5 7 1
5 8 47
5 9 54
5 10 57
6 0 33
6 1 19
6 2 56
6 3 97
6 4 30
6 5 79
6 7 15
6 8 45
6 9 25
6 10 81
7 0 42
7 1 68
7 2 25
7 3 24
7 4 49
7 5 77
7 6 27
7 8 74
7 9 91
7 10 58
8 0 58
8 1 46
8 2 98
8 3 82
8 4 83
8 5 67
8 6 92
8 7 31
8 9 67
8 10 57
9 0 79
9 1 12
9 2 62
9 3 92
9 4 25
9 5 15
9 6 83
9 7 27
9 8 97
9 10 72
10 0 51
10 1 70
10 2 93
10 3 82
10 4 85
10 5 6
10 6 14
10 7 51
10 8 83
10 9 13
